s td 22 3 24
b 1 1 2 13
b 2 2 13 14
b 3 2 3 14
b 4 3 14 15
b 5 3 4 15
b 6 4 15 16
b 7 4 5 16
b 8 5 16 17
b 9 5 6 17
b 10 6 17 18
b 11 6 7 18
b 12 7 18 19
b 13 7 8 19
b 14 8 19 20
b 15 8 9 20
b 16 9 20 21
b 17 9 10 21
b 18 10 21 22
b 19 10 11 22
b 20 11 22 23
b 21 11 12 23
b 22 12 23 24
1 2
2 3
3 4
4 5
5 6
6 7
7 8
8 9
9 10
10 11
11 12
12 13
13 14
14 15
15 16
16 17
17 18
18 19
19 20
20 21
21 22
